\Problem name: Modelo Montagem de Elenco

Minimize
OBJROW: -1.11000 y(0,0) -3.13000 y(0,1) -6.09000 y(0,2) -3.05000 y(0,3) -5.87000 y(0,4) -3.69000 y(0,5) -3.71000 y(0,6) -4.51000 y(0,7) -3.45000 y(0,8) -5 y(0,9)
 -5.57000 y(0,10) -3.89000 y(0,11) -3.58000 y(0,12) -6.18000 y(0,13) -3.64000 y(0,14) -6.34000 y(0,15) -2.53000 y(0,16) -4.45000 y(0,17) -3.34000 y(0,18) -1.85000 y(0,19)
 -1.85000 y(0,20) -4.66000 y(0,21) -10.87000 y(0,22) -3.25000 y(0,23) -5.18000 y(0,24) -4.03000 y(0,25) -5.45000 y(0,26) -4.55000 y(0,27) -4.26000 y(0,28) -1.85000 y(0,29)
 -0.66000 y(0,30) -4.57000 y(0,31) -5.37000 y(0,32) -4.90000 y(0,33) -7 y(0,34) -3.01000 y(0,35) -1.11000 y(1,0) -3.13000 y(1,1) -6.09000 y(1,2) -3.05000 y(1,3)
 -5.87000 y(1,4) -3.69000 y(1,5) -3.71000 y(1,6) -4.51000 y(1,7) -3.45000 y(1,8) -5 y(1,9) -5.57000 y(1,10) -3.89000 y(1,11) -3.58000 y(1,12) -6.18000 y(1,13)
 -3.64000 y(1,14) -6.34000 y(1,15) -2.53000 y(1,16) -4.45000 y(1,17) -3.34000 y(1,18) -1.85000 y(1,19) -1.85000 y(1,20) -4.66000 y(1,21) -10.87000 y(1,22) -3.25000 y(1,23)
 -5.18000 y(1,24) -4.03000 y(1,25) -5.45000 y(1,26) -4.55000 y(1,27) -4.26000 y(1,28) -1.85000 y(1,29) -0.66000 y(1,30) -4.57000 y(1,31) -5.37000 y(1,32) -4.90000 y(1,33)
 -7 y(1,34) -3.01000 y(1,35) -1.11000 y(2,0) -3.13000 y(2,1) -6.09000 y(2,2) -3.05000 y(2,3) -5.87000 y(2,4) -3.69000 y(2,5) -3.71000 y(2,6) -4.51000 y(2,7)
 -3.45000 y(2,8) -5 y(2,9) -5.57000 y(2,10) -3.89000 y(2,11) -3.58000 y(2,12) -6.18000 y(2,13) -3.64000 y(2,14) -6.34000 y(2,15) -2.53000 y(2,16) -4.45000 y(2,17)
 -3.34000 y(2,18) -1.85000 y(2,19) -1.85000 y(2,20) -4.66000 y(2,21) -10.87000 y(2,22) -3.25000 y(2,23) -5.18000 y(2,24) -4.03000 y(2,25) -5.45000 y(2,26) -4.55000 y(2,27)
 -4.26000 y(2,28) -1.85000 y(2,29) -0.66000 y(2,30) -4.57000 y(2,31) -5.37000 y(2,32) -4.90000 y(2,33) -7 y(2,34) -3.01000 y(2,35) -1.11000 y(3,0) -3.13000 y(3,1)
 -6.09000 y(3,2) -3.05000 y(3,3) -5.87000 y(3,4) -3.69000 y(3,5) -3.71000 y(3,6) -4.51000 y(3,7) -3.45000 y(3,8) -5 y(3,9) -5.57000 y(3,10) -3.89000 y(3,11)
 -3.58000 y(3,12) -6.18000 y(3,13) -3.64000 y(3,14) -6.34000 y(3,15) -2.53000 y(3,16) -4.45000 y(3,17) -3.34000 y(3,18) -1.85000 y(3,19) -1.85000 y(3,20) -4.66000 y(3,21)
 -10.87000 y(3,22) -3.25000 y(3,23) -5.18000 y(3,24) -4.03000 y(3,25) -5.45000 y(3,26) -4.55000 y(3,27) -4.26000 y(3,28) -1.85000 y(3,29) -0.66000 y(3,30) -4.57000 y(3,31)
 -5.37000 y(3,32) -4.90000 y(3,33) -7 y(3,34) -3.01000 y(3,35) -1.11000 y(4,0) -3.13000 y(4,1) -6.09000 y(4,2) -3.05000 y(4,3) -5.87000 y(4,4) -3.69000 y(4,5)
 -3.71000 y(4,6) -4.51000 y(4,7) -3.45000 y(4,8) -5 y(4,9) -5.57000 y(4,10) -3.89000 y(4,11) -3.58000 y(4,12) -6.18000 y(4,13) -3.64000 y(4,14) -6.34000 y(4,15)
 -2.53000 y(4,16) -4.45000 y(4,17) -3.34000 y(4,18) -1.85000 y(4,19) -1.85000 y(4,20) -4.66000 y(4,21) -10.87000 y(4,22) -3.25000 y(4,23) -5.18000 y(4,24) -4.03000 y(4,25)
 -5.45000 y(4,26) -4.55000 y(4,27) -4.26000 y(4,28) -1.85000 y(4,29) -0.66000 y(4,30) -4.57000 y(4,31) -5.37000 y(4,32) -4.90000 y(4,33) -7 y(4,34) -3.01000 y(4,35)
 -1.11000 y(5,0) -3.13000 y(5,1) -6.09000 y(5,2) -3.05000 y(5,3) -5.87000 y(5,4) -3.69000 y(5,5) -3.71000 y(5,6) -4.51000 y(5,7) -3.45000 y(5,8) -5 y(5,9)
 -5.57000 y(5,10) -3.89000 y(5,11) -3.58000 y(5,12) -6.18000 y(5,13) -3.64000 y(5,14) -6.34000 y(5,15) -2.53000 y(5,16) -4.45000 y(5,17) -3.34000 y(5,18) -1.85000 y(5,19)
 -1.85000 y(5,20) -4.66000 y(5,21) -10.87000 y(5,22) -3.25000 y(5,23) -5.18000 y(5,24) -4.03000 y(5,25) -5.45000 y(5,26) -4.55000 y(5,27) -4.26000 y(5,28) -1.85000 y(5,29)
 -0.66000 y(5,30) -4.57000 y(5,31) -5.37000 y(5,32) -4.90000 y(5,33) -7 y(5,34) -3.01000 y(5,35)
Subject To
restricao3.6_0:  y(0,0) + y(1,0) + y(2,0) + y(3,0) + y(4,0) + y(5,0) <= 1
restricao3.6_1:  y(0,1) + y(1,1) + y(2,1) + y(3,1) + y(4,1) + y(5,1) <= 1
restricao3.6_2:  y(0,2) + y(1,2) + y(2,2) + y(3,2) + y(4,2) + y(5,2) <= 1
restricao3.6_3:  y(0,3) + y(1,3) + y(2,3) + y(3,3) + y(4,3) + y(5,3) <= 1
restricao3.6_4:  y(0,4) + y(1,4) + y(2,4) + y(3,4) + y(4,4) + y(5,4) <= 1
restricao3.6_5:  y(0,5) + y(1,5) + y(2,5) + y(3,5) + y(4,5) + y(5,5) <= 1
restricao3.6_6:  y(0,6) + y(1,6) + y(2,6) + y(3,6) + y(4,6) + y(5,6) <= 1
restricao3.6_7:  y(0,7) + y(1,7) + y(2,7) + y(3,7) + y(4,7) + y(5,7) <= 1
restricao3.6_8:  y(0,8) + y(1,8) + y(2,8) + y(3,8) + y(4,8) + y(5,8) <= 1
restricao3.6_9:  y(0,9) + y(1,9) + y(2,9) + y(3,9) + y(4,9) + y(5,9) <= 1
restricao3.6_10:  y(0,10) + y(1,10) + y(2,10) + y(3,10) + y(4,10) + y(5,10) <= 1
restricao3.6_11:  y(0,11) + y(1,11) + y(2,11) + y(3,11) + y(4,11) + y(5,11) <= 1
restricao3.6_12:  y(0,12) + y(1,12) + y(2,12) + y(3,12) + y(4,12) + y(5,12) <= 1
restricao3.6_13:  y(0,13) + y(1,13) + y(2,13) + y(3,13) + y(4,13) + y(5,13) <= 1
restricao3.6_14:  y(0,14) + y(1,14) + y(2,14) + y(3,14) + y(4,14) + y(5,14) <= 1
restricao3.6_15:  y(0,15) + y(1,15) + y(2,15) + y(3,15) + y(4,15) + y(5,15) <= 1
restricao3.6_16:  y(0,16) + y(1,16) + y(2,16) + y(3,16) + y(4,16) + y(5,16) <= 1
restricao3.6_17:  y(0,17) + y(1,17) + y(2,17) + y(3,17) + y(4,17) + y(5,17) <= 1
restricao3.6_18:  y(0,18) + y(1,18) + y(2,18) + y(3,18) + y(4,18) + y(5,18) <= 1
restricao3.6_19:  y(0,19) + y(1,19) + y(2,19) + y(3,19) + y(4,19) + y(5,19) <= 1
restricao3.6_20:  y(0,20) + y(1,20) + y(2,20) + y(3,20) + y(4,20) + y(5,20) <= 1
restricao3.6_21:  y(0,21) + y(1,21) + y(2,21) + y(3,21) + y(4,21) + y(5,21) <= 1
restricao3.6_22:  y(0,22) + y(1,22) + y(2,22) + y(3,22) + y(4,22) + y(5,22) <= 1
restricao3.6_23:  y(0,23) + y(1,23) + y(2,23) + y(3,23) + y(4,23) + y(5,23) <= 1
restricao3.6_24:  y(0,24) + y(1,24) + y(2,24) + y(3,24) + y(4,24) + y(5,24) <= 1
restricao3.6_25:  y(0,25) + y(1,25) + y(2,25) + y(3,25) + y(4,25) + y(5,25) <= 1
restricao3.6_26:  y(0,26) + y(1,26) + y(2,26) + y(3,26) + y(4,26) + y(5,26) <= 1
restricao3.6_27:  y(0,27) + y(1,27) + y(2,27) + y(3,27) + y(4,27) + y(5,27) <= 1
restricao3.6_28:  y(0,28) + y(1,28) + y(2,28) + y(3,28) + y(4,28) + y(5,28) <= 1
restricao3.6_29:  y(0,29) + y(1,29) + y(2,29) + y(3,29) + y(4,29) + y(5,29) <= 1
restricao3.6_30:  y(0,30) + y(1,30) + y(2,30) + y(3,30) + y(4,30) + y(5,30) <= 1
restricao3.6_31:  y(0,31) + y(1,31) + y(2,31) + y(3,31) + y(4,31) + y(5,31) <= 1
restricao3.6_32:  y(0,32) + y(1,32) + y(2,32) + y(3,32) + y(4,32) + y(5,32) <= 1
restricao3.6_33:  y(0,33) + y(1,33) + y(2,33) + y(3,33) + y(4,33) + y(5,33) <= 1
restricao3.6_34:  y(0,34) + y(1,34) + y(2,34) + y(3,34) + y(4,34) + y(5,34) <= 1
restricao3.6_35:  y(0,35) + y(1,35) + y(2,35) + y(3,35) + y(4,35) + y(5,35) <= 1
restricao_12jogadores:  y(0,0) + y(0,1) + y(0,2) + y(0,3) + y(0,4) + y(0,5) + y(0,6) + y(0,7) + y(0,8) + y(0,9)
 + y(0,10) + y(0,11) + y(0,12) + y(0,13) + y(0,14) + y(0,15) + y(0,16) + y(0,17) + y(0,18) + y(0,19)
 + y(0,20) + y(0,21) + y(0,22) + y(0,23) + y(0,24) + y(0,25) + y(0,26) + y(0,27) + y(0,28) + y(0,29)
 + y(0,30) + y(0,31) + y(0,32) + y(0,33) + y(0,34) + y(0,35) + y(1,0) + y(1,1) + y(1,2) + y(1,3)
 + y(1,4) + y(1,5) + y(1,6) + y(1,7) + y(1,8) + y(1,9) + y(1,10) + y(1,11) + y(1,12) + y(1,13)
 + y(1,14) + y(1,15) + y(1,16) + y(1,17) + y(1,18) + y(1,19) + y(1,20) + y(1,21) + y(1,22) + y(1,23)
 + y(1,24) + y(1,25) + y(1,26) + y(1,27) + y(1,28) + y(1,29) + y(1,30) + y(1,31) + y(1,32) + y(1,33)
 + y(1,34) + y(1,35) + y(2,0) + y(2,1) + y(2,2) + y(2,3) + y(2,4) + y(2,5) + y(2,6) + y(2,7)
 + y(2,8) + y(2,9) + y(2,10) + y(2,11) + y(2,12) + y(2,13) + y(2,14) + y(2,15) + y(2,16) + y(2,17)
 + y(2,18) + y(2,19) + y(2,20) + y(2,21) + y(2,22) + y(2,23) + y(2,24) + y(2,25) + y(2,26) + y(2,27)
 + y(2,28) + y(2,29) + y(2,30) + y(2,31) + y(2,32) + y(2,33) + y(2,34) + y(2,35) + y(3,0) + y(3,1)
 + y(3,2) + y(3,3) + y(3,4) + y(3,5) + y(3,6) + y(3,7) + y(3,8) + y(3,9) + y(3,10) + y(3,11)
 + y(3,12) + y(3,13) + y(3,14) + y(3,15) + y(3,16) + y(3,17) + y(3,18) + y(3,19) + y(3,20) + y(3,21)
 + y(3,22) + y(3,23) + y(3,24) + y(3,25) + y(3,26) + y(3,27) + y(3,28) + y(3,29) + y(3,30) + y(3,31)
 + y(3,32) + y(3,33) + y(3,34) + y(3,35) + y(4,0) + y(4,1) + y(4,2) + y(4,3) + y(4,4) + y(4,5)
 + y(4,6) + y(4,7) + y(4,8) + y(4,9) + y(4,10) + y(4,11) + y(4,12) + y(4,13) + y(4,14) + y(4,15)
 + y(4,16) + y(4,17) + y(4,18) + y(4,19) + y(4,20) + y(4,21) + y(4,22) + y(4,23) + y(4,24) + y(4,25)
 + y(4,26) + y(4,27) + y(4,28) + y(4,29) + y(4,30) + y(4,31) + y(4,32) + y(4,33) + y(4,34) + y(4,35)
 + y(5,0) + y(5,1) + y(5,2) + y(5,3) + y(5,4) + y(5,5) + y(5,6) + y(5,7) + y(5,8) + y(5,9)
 + y(5,10) + y(5,11) + y(5,12) + y(5,13) + y(5,14) + y(5,15) + y(5,16) + y(5,17) + y(5,18) + y(5,19)
 + y(5,20) + y(5,21) + y(5,22) + y(5,23) + y(5,24) + y(5,25) + y(5,26) + y(5,27) + y(5,28) + y(5,29)
 + y(5,30) + y(5,31) + y(5,32) + y(5,33) + y(5,34) + y(5,35) = 12
restricao3.5_0:  y(0,0) + y(0,1) + y(0,2) + y(0,3) + y(0,4) + y(0,5) + y(0,6) + y(0,7) = 2
restricao3.5_1:  y(1,8) + y(1,9) + y(1,10) + y(1,11) = 1
restricao3.5_2:  y(2,12) + y(2,13) + y(2,14) + y(2,15) + y(2,16) + y(2,17) = 2
restricao3.5_3:  y(3,18) + y(3,19) + y(3,20) + y(3,21) + y(3,22) + y(3,23) + y(3,24) = 3
restricao3.5_4:  y(4,25) + y(4,26) + y(4,27) + y(4,28) = 1
restricao3.5_5:  y(5,29) + y(5,30) + y(5,31) + y(5,32) + y(5,33) + y(5,34) + y(5,35) = 3
restricao3.3_5:  2.49000 y(0,0) + 12.22000 y(0,1) + 17.28000 y(0,2) + 10.48000 y(0,3) + 17.71000 y(0,4) + 11.68000 y(0,5) + 10.97000 y(0,6) + 11.71000 y(0,7) + 5.88000 y(0,8) + 11.45000 y(0,9)
 + 12.08000 y(0,10) + 14.04000 y(0,11) + 10.64000 y(0,12) + 12.45000 y(0,13) + 6.83000 y(0,14) + 14.58000 y(0,15) + 5.80000 y(0,16) + 7.92000 y(0,17) + 11.22000 y(0,18) + 8.85000 y(0,19)
 + 5.75000 y(0,20) + 10.99000 y(0,21) + 14.50000 y(0,22) + 7.29000 y(0,23) + 11.17000 y(0,24) + 11.81000 y(0,25) + 13.13000 y(0,26) + 11.77000 y(0,27) + 10.30000 y(0,28) + 6.20000 y(0,29)
 + 3.53000 y(0,30) + 12.29000 y(0,31) + 14.94000 y(0,32) + 11.79000 y(0,33) + 14.86000 y(0,34) + 10.23000 y(0,35) + 2.49000 y(1,0) + 12.22000 y(1,1) + 17.28000 y(1,2) + 10.48000 y(1,3)
 + 17.71000 y(1,4) + 11.68000 y(1,5) + 10.97000 y(1,6) + 11.71000 y(1,7) + 5.88000 y(1,8) + 11.45000 y(1,9) + 12.08000 y(1,10) + 14.04000 y(1,11) + 10.64000 y(1,12) + 12.45000 y(1,13)
 + 6.83000 y(1,14) + 14.58000 y(1,15) + 5.80000 y(1,16) + 7.92000 y(1,17) + 11.22000 y(1,18) + 8.85000 y(1,19) + 5.75000 y(1,20) + 10.99000 y(1,21) + 14.50000 y(1,22) + 7.29000 y(1,23)
 + 11.17000 y(1,24) + 11.81000 y(1,25) + 13.13000 y(1,26) + 11.77000 y(1,27) + 10.30000 y(1,28) + 6.20000 y(1,29) + 3.53000 y(1,30) + 12.29000 y(1,31) + 14.94000 y(1,32) + 11.79000 y(1,33)
 + 14.86000 y(1,34) + 10.23000 y(1,35) + 2.49000 y(2,0) + 12.22000 y(2,1) + 17.28000 y(2,2) + 10.48000 y(2,3) + 17.71000 y(2,4) + 11.68000 y(2,5) + 10.97000 y(2,6) + 11.71000 y(2,7)
 + 5.88000 y(2,8) + 11.45000 y(2,9) + 12.08000 y(2,10) + 14.04000 y(2,11) + 10.64000 y(2,12) + 12.45000 y(2,13) + 6.83000 y(2,14) + 14.58000 y(2,15) + 5.80000 y(2,16) + 7.92000 y(2,17)
 + 11.22000 y(2,18) + 8.85000 y(2,19) + 5.75000 y(2,20) + 10.99000 y(2,21) + 14.50000 y(2,22) + 7.29000 y(2,23) + 11.17000 y(2,24) + 11.81000 y(2,25) + 13.13000 y(2,26) + 11.77000 y(2,27)
 + 10.30000 y(2,28) + 6.20000 y(2,29) + 3.53000 y(2,30) + 12.29000 y(2,31) + 14.94000 y(2,32) + 11.79000 y(2,33) + 14.86000 y(2,34) + 10.23000 y(2,35) + 2.49000 y(3,0) + 12.22000 y(3,1)
 + 17.28000 y(3,2) + 10.48000 y(3,3) + 17.71000 y(3,4) + 11.68000 y(3,5) + 10.97000 y(3,6) + 11.71000 y(3,7) + 5.88000 y(3,8) + 11.45000 y(3,9) + 12.08000 y(3,10) + 14.04000 y(3,11)
 + 10.64000 y(3,12) + 12.45000 y(3,13) + 6.83000 y(3,14) + 14.58000 y(3,15) + 5.80000 y(3,16) + 7.92000 y(3,17) + 11.22000 y(3,18) + 8.85000 y(3,19) + 5.75000 y(3,20) + 10.99000 y(3,21)
 + 14.50000 y(3,22) + 7.29000 y(3,23) + 11.17000 y(3,24) + 11.81000 y(3,25) + 13.13000 y(3,26) + 11.77000 y(3,27) + 10.30000 y(3,28) + 6.20000 y(3,29) + 3.53000 y(3,30) + 12.29000 y(3,31)
 + 14.94000 y(3,32) + 11.79000 y(3,33) + 14.86000 y(3,34) + 10.23000 y(3,35) + 2.49000 y(4,0) + 12.22000 y(4,1) + 17.28000 y(4,2) + 10.48000 y(4,3) + 17.71000 y(4,4) + 11.68000 y(4,5)
 + 10.97000 y(4,6) + 11.71000 y(4,7) + 5.88000 y(4,8) + 11.45000 y(4,9) + 12.08000 y(4,10) + 14.04000 y(4,11) + 10.64000 y(4,12) + 12.45000 y(4,13) + 6.83000 y(4,14) + 14.58000 y(4,15)
 + 5.80000 y(4,16) + 7.92000 y(4,17) + 11.22000 y(4,18) + 8.85000 y(4,19) + 5.75000 y(4,20) + 10.99000 y(4,21) + 14.50000 y(4,22) + 7.29000 y(4,23) + 11.17000 y(4,24) + 11.81000 y(4,25)
 + 13.13000 y(4,26) + 11.77000 y(4,27) + 10.30000 y(4,28) + 6.20000 y(4,29) + 3.53000 y(4,30) + 12.29000 y(4,31) + 14.94000 y(4,32) + 11.79000 y(4,33) + 14.86000 y(4,34) + 10.23000 y(4,35)
 + 2.49000 y(5,0) + 12.22000 y(5,1) + 17.28000 y(5,2) + 10.48000 y(5,3) + 17.71000 y(5,4) + 11.68000 y(5,5) + 10.97000 y(5,6) + 11.71000 y(5,7) + 5.88000 y(5,8) + 11.45000 y(5,9)
 + 12.08000 y(5,10) + 14.04000 y(5,11) + 10.64000 y(5,12) + 12.45000 y(5,13) + 6.83000 y(5,14) + 14.58000 y(5,15) + 5.80000 y(5,16) + 7.92000 y(5,17) + 11.22000 y(5,18) + 8.85000 y(5,19)
 + 5.75000 y(5,20) + 10.99000 y(5,21) + 14.50000 y(5,22) + 7.29000 y(5,23) + 11.17000 y(5,24) + 11.81000 y(5,25) + 13.13000 y(5,26) + 11.77000 y(5,27) + 10.30000 y(5,28) + 6.20000 y(5,29)
 + 3.53000 y(5,30) + 12.29000 y(5,31) + 14.94000 y(5,32) + 11.79000 y(5,33) + 14.86000 y(5,34) + 10.23000 y(5,35) <= 204.83000
Bounds
 0 <= y(0,0) <= 1
 0 <= y(0,1) <= 1
 0 <= y(0,2) <= 1
 0 <= y(0,3) <= 1
 0 <= y(0,4) <= 1
 0 <= y(0,5) <= 1
 0 <= y(0,6) <= 1
 0 <= y(0,7) <= 1
 0 <= y(0,8) <= 1
 0 <= y(0,9) <= 1
 0 <= y(0,10) <= 1
 0 <= y(0,11) <= 1
 0 <= y(0,12) <= 1
 0 <= y(0,13) <= 1
 0 <= y(0,14) <= 1
 0 <= y(0,15) <= 1
 0 <= y(0,16) <= 1
 0 <= y(0,17) <= 1
 0 <= y(0,18) <= 1
 0 <= y(0,19) <= 1
 0 <= y(0,20) <= 1
 0 <= y(0,21) <= 1
 0 <= y(0,22) <= 1
 0 <= y(0,23) <= 1
 0 <= y(0,24) <= 1
 0 <= y(0,25) <= 1
 0 <= y(0,26) <= 1
 0 <= y(0,27) <= 1
 0 <= y(0,28) <= 1
 0 <= y(0,29) <= 1
 0 <= y(0,30) <= 1
 0 <= y(0,31) <= 1
 0 <= y(0,32) <= 1
 0 <= y(0,33) <= 1
 0 <= y(0,34) <= 1
 0 <= y(0,35) <= 1
 0 <= y(1,0) <= 1
 0 <= y(1,1) <= 1
 0 <= y(1,2) <= 1
 0 <= y(1,3) <= 1
 0 <= y(1,4) <= 1
 0 <= y(1,5) <= 1
 0 <= y(1,6) <= 1
 0 <= y(1,7) <= 1
 0 <= y(1,8) <= 1
 0 <= y(1,9) <= 1
 0 <= y(1,10) <= 1
 0 <= y(1,11) <= 1
 0 <= y(1,12) <= 1
 0 <= y(1,13) <= 1
 0 <= y(1,14) <= 1
 0 <= y(1,15) <= 1
 0 <= y(1,16) <= 1
 0 <= y(1,17) <= 1
 0 <= y(1,18) <= 1
 0 <= y(1,19) <= 1
 0 <= y(1,20) <= 1
 0 <= y(1,21) <= 1
 0 <= y(1,22) <= 1
 0 <= y(1,23) <= 1
 0 <= y(1,24) <= 1
 0 <= y(1,25) <= 1
 0 <= y(1,26) <= 1
 0 <= y(1,27) <= 1
 0 <= y(1,28) <= 1
 0 <= y(1,29) <= 1
 0 <= y(1,30) <= 1
 0 <= y(1,31) <= 1
 0 <= y(1,32) <= 1
 0 <= y(1,33) <= 1
 0 <= y(1,34) <= 1
 0 <= y(1,35) <= 1
 0 <= y(2,0) <= 1
 0 <= y(2,1) <= 1
 0 <= y(2,2) <= 1
 0 <= y(2,3) <= 1
 0 <= y(2,4) <= 1
 0 <= y(2,5) <= 1
 0 <= y(2,6) <= 1
 0 <= y(2,7) <= 1
 0 <= y(2,8) <= 1
 0 <= y(2,9) <= 1
 0 <= y(2,10) <= 1
 0 <= y(2,11) <= 1
 0 <= y(2,12) <= 1
 0 <= y(2,13) <= 1
 0 <= y(2,14) <= 1
 0 <= y(2,15) <= 1
 0 <= y(2,16) <= 1
 0 <= y(2,17) <= 1
 0 <= y(2,18) <= 1
 0 <= y(2,19) <= 1
 0 <= y(2,20) <= 1
 0 <= y(2,21) <= 1
 0 <= y(2,22) <= 1
 0 <= y(2,23) <= 1
 0 <= y(2,24) <= 1
 0 <= y(2,25) <= 1
 0 <= y(2,26) <= 1
 0 <= y(2,27) <= 1
 0 <= y(2,28) <= 1
 0 <= y(2,29) <= 1
 0 <= y(2,30) <= 1
 0 <= y(2,31) <= 1
 0 <= y(2,32) <= 1
 0 <= y(2,33) <= 1
 0 <= y(2,34) <= 1
 0 <= y(2,35) <= 1
 0 <= y(3,0) <= 1
 0 <= y(3,1) <= 1
 0 <= y(3,2) <= 1
 0 <= y(3,3) <= 1
 0 <= y(3,4) <= 1
 0 <= y(3,5) <= 1
 0 <= y(3,6) <= 1
 0 <= y(3,7) <= 1
 0 <= y(3,8) <= 1
 0 <= y(3,9) <= 1
 0 <= y(3,10) <= 1
 0 <= y(3,11) <= 1
 0 <= y(3,12) <= 1
 0 <= y(3,13) <= 1
 0 <= y(3,14) <= 1
 0 <= y(3,15) <= 1
 0 <= y(3,16) <= 1
 0 <= y(3,17) <= 1
 0 <= y(3,18) <= 1
 0 <= y(3,19) <= 1
 0 <= y(3,20) <= 1
 0 <= y(3,21) <= 1
 0 <= y(3,22) <= 1
 0 <= y(3,23) <= 1
 0 <= y(3,24) <= 1
 0 <= y(3,25) <= 1
 0 <= y(3,26) <= 1
 0 <= y(3,27) <= 1
 0 <= y(3,28) <= 1
 0 <= y(3,29) <= 1
 0 <= y(3,30) <= 1
 0 <= y(3,31) <= 1
 0 <= y(3,32) <= 1
 0 <= y(3,33) <= 1
 0 <= y(3,34) <= 1
 0 <= y(3,35) <= 1
 0 <= y(4,0) <= 1
 0 <= y(4,1) <= 1
 0 <= y(4,2) <= 1
 0 <= y(4,3) <= 1
 0 <= y(4,4) <= 1
 0 <= y(4,5) <= 1
 0 <= y(4,6) <= 1
 0 <= y(4,7) <= 1
 0 <= y(4,8) <= 1
 0 <= y(4,9) <= 1
 0 <= y(4,10) <= 1
 0 <= y(4,11) <= 1
 0 <= y(4,12) <= 1
 0 <= y(4,13) <= 1
 0 <= y(4,14) <= 1
 0 <= y(4,15) <= 1
 0 <= y(4,16) <= 1
 0 <= y(4,17) <= 1
 0 <= y(4,18) <= 1
 0 <= y(4,19) <= 1
 0 <= y(4,20) <= 1
 0 <= y(4,21) <= 1
 0 <= y(4,22) <= 1
 0 <= y(4,23) <= 1
 0 <= y(4,24) <= 1
 0 <= y(4,25) <= 1
 0 <= y(4,26) <= 1
 0 <= y(4,27) <= 1
 0 <= y(4,28) <= 1
 0 <= y(4,29) <= 1
 0 <= y(4,30) <= 1
 0 <= y(4,31) <= 1
 0 <= y(4,32) <= 1
 0 <= y(4,33) <= 1
 0 <= y(4,34) <= 1
 0 <= y(4,35) <= 1
 0 <= y(5,0) <= 1
 0 <= y(5,1) <= 1
 0 <= y(5,2) <= 1
 0 <= y(5,3) <= 1
 0 <= y(5,4) <= 1
 0 <= y(5,5) <= 1
 0 <= y(5,6) <= 1
 0 <= y(5,7) <= 1
 0 <= y(5,8) <= 1
 0 <= y(5,9) <= 1
 0 <= y(5,10) <= 1
 0 <= y(5,11) <= 1
 0 <= y(5,12) <= 1
 0 <= y(5,13) <= 1
 0 <= y(5,14) <= 1
 0 <= y(5,15) <= 1
 0 <= y(5,16) <= 1
 0 <= y(5,17) <= 1
 0 <= y(5,18) <= 1
 0 <= y(5,19) <= 1
 0 <= y(5,20) <= 1
 0 <= y(5,21) <= 1
 0 <= y(5,22) <= 1
 0 <= y(5,23) <= 1
 0 <= y(5,24) <= 1
 0 <= y(5,25) <= 1
 0 <= y(5,26) <= 1
 0 <= y(5,27) <= 1
 0 <= y(5,28) <= 1
 0 <= y(5,29) <= 1
 0 <= y(5,30) <= 1
 0 <= y(5,31) <= 1
 0 <= y(5,32) <= 1
 0 <= y(5,33) <= 1
 0 <= y(5,34) <= 1
 0 <= y(5,35) <= 1
Integers
y(0,0) y(0,1) y(0,2) y(0,3) y(0,4) y(0,5) y(0,6) y(0,7) y(0,8) y(0,9) 
y(0,10) y(0,11) y(0,12) y(0,13) y(0,14) y(0,15) y(0,16) y(0,17) y(0,18) y(0,19) 
y(0,20) y(0,21) y(0,22) y(0,23) y(0,24) y(0,25) y(0,26) y(0,27) y(0,28) y(0,29) 
y(0,30) y(0,31) y(0,32) y(0,33) y(0,34) y(0,35) y(1,0) y(1,1) y(1,2) y(1,3) 
y(1,4) y(1,5) y(1,6) y(1,7) y(1,8) y(1,9) y(1,10) y(1,11) y(1,12) y(1,13) 
y(1,14) y(1,15) y(1,16) y(1,17) y(1,18) y(1,19) y(1,20) y(1,21) y(1,22) y(1,23) 
y(1,24) y(1,25) y(1,26) y(1,27) y(1,28) y(1,29) y(1,30) y(1,31) y(1,32) y(1,33) 
y(1,34) y(1,35) y(2,0) y(2,1) y(2,2) y(2,3) y(2,4) y(2,5) y(2,6) y(2,7) 
y(2,8) y(2,9) y(2,10) y(2,11) y(2,12) y(2,13) y(2,14) y(2,15) y(2,16) y(2,17) 
y(2,18) y(2,19) y(2,20) y(2,21) y(2,22) y(2,23) y(2,24) y(2,25) y(2,26) y(2,27) 
y(2,28) y(2,29) y(2,30) y(2,31) y(2,32) y(2,33) y(2,34) y(2,35) y(3,0) y(3,1) 
y(3,2) y(3,3) y(3,4) y(3,5) y(3,6) y(3,7) y(3,8) y(3,9) y(3,10) y(3,11) 
y(3,12) y(3,13) y(3,14) y(3,15) y(3,16) y(3,17) y(3,18) y(3,19) y(3,20) y(3,21) 
y(3,22) y(3,23) y(3,24) y(3,25) y(3,26) y(3,27) y(3,28) y(3,29) y(3,30) y(3,31) 
y(3,32) y(3,33) y(3,34) y(3,35) y(4,0) y(4,1) y(4,2) y(4,3) y(4,4) y(4,5) 
y(4,6) y(4,7) y(4,8) y(4,9) y(4,10) y(4,11) y(4,12) y(4,13) y(4,14) y(4,15) 
y(4,16) y(4,17) y(4,18) y(4,19) y(4,20) y(4,21) y(4,22) y(4,23) y(4,24) y(4,25) 
y(4,26) y(4,27) y(4,28) y(4,29) y(4,30) y(4,31) y(4,32) y(4,33) y(4,34) y(4,35) 
y(5,0) y(5,1) y(5,2) y(5,3) y(5,4) y(5,5) y(5,6) y(5,7) y(5,8) y(5,9) 
y(5,10) y(5,11) y(5,12) y(5,13) y(5,14) y(5,15) y(5,16) y(5,17) y(5,18) y(5,19) 
y(5,20) y(5,21) y(5,22) y(5,23) y(5,24) y(5,25) y(5,26) y(5,27) y(5,28) y(5,29) 
y(5,30) y(5,31) y(5,32) y(5,33) y(5,34) y(5,35) 
End
